c File: flat200_3_0.col
c
c SOURCE: Joseph Culberson (joe@cs.ualberta.ca)
c DESCRIPTION: Quasi-random coloring problem
c              generated with flatness = 0
c                             probability = 0.036
c                             known coloring = 3
c                             random seed = 1074
c              Creation Date:  Wed Feb 24 10:40:10 1999
c Maximum degree = 8 Minimum degree = 0
c COLOR VERIFICATION: Using the permuted order
c under simple greedy yields the specified
c coloring number
c Color = 3 specified partitions = 3
c p edge 200 479
c cnf created by edge2cnf
p cnf 600 2237
-1 -2 0
-1 -3 0
-2 -3 0
1 2 3 0
-4 -5 0
-4 -6 0
-5 -6 0
4 5 6 0
-7 -8 0
-7 -9 0
-8 -9 0
7 8 9 0
-10 -11 0
-10 -12 0
-11 -12 0
10 11 12 0
-13 -14 0
-13 -15 0
-14 -15 0
13 14 15 0
-16 -17 0
-16 -18 0
-17 -18 0
16 17 18 0
-19 -20 0
-19 -21 0
-20 -21 0
19 20 21 0
-22 -23 0
-22 -24 0
-23 -24 0
22 23 24 0
-25 -26 0
-25 -27 0
-26 -27 0
25 26 27 0
-28 -29 0
-28 -30 0
-29 -30 0
28 29 30 0
-31 -32 0
-31 -33 0
-32 -33 0
31 32 33 0
-34 -35 0
-34 -36 0
-35 -36 0
34 35 36 0
-37 -38 0
-37 -39 0
-38 -39 0
37 38 39 0
-40 -41 0
-40 -42 0
-41 -42 0
40 41 42 0
-43 -44 0
-43 -45 0
-44 -45 0
43 44 45 0
-46 -47 0
-46 -48 0
-47 -48 0
46 47 48 0
-49 -50 0
-49 -51 0
-50 -51 0
49 50 51 0
-52 -53 0
-52 -54 0
-53 -54 0
52 53 54 0
-55 -56 0
-55 -57 0
-56 -57 0
55 56 57 0
-58 -59 0
-58 -60 0
-59 -60 0
58 59 60 0
-61 -62 0
-61 -63 0
-62 -63 0
61 62 63 0
-64 -65 0
-64 -66 0
-65 -66 0
64 65 66 0
-67 -68 0
-67 -69 0
-68 -69 0
67 68 69 0
-70 -71 0
-70 -72 0
-71 -72 0
70 71 72 0
-73 -74 0
-73 -75 0
-74 -75 0
73 74 75 0
-76 -77 0
-76 -78 0
-77 -78 0
76 77 78 0
-79 -80 0
-79 -81 0
-80 -81 0
79 80 81 0
-82 -83 0
-82 -84 0
-83 -84 0
82 83 84 0
-85 -86 0
-85 -87 0
-86 -87 0
85 86 87 0
-88 -89 0
-88 -90 0
-89 -90 0
88 89 90 0
-91 -92 0
-91 -93 0
-92 -93 0
91 92 93 0
-94 -95 0
-94 -96 0
-95 -96 0
94 95 96 0
-97 -98 0
-97 -99 0
-98 -99 0
97 98 99 0
-100 -101 0
-100 -102 0
-101 -102 0
100 101 102 0
-103 -104 0
-103 -105 0
-104 -105 0
103 104 105 0
-106 -107 0
-106 -108 0
-107 -108 0
106 107 108 0
-109 -110 0
-109 -111 0
-110 -111 0
109 110 111 0
-112 -113 0
-112 -114 0
-113 -114 0
112 113 114 0
-115 -116 0
-115 -117 0
-116 -117 0
115 116 117 0
-118 -119 0
-118 -120 0
-119 -120 0
118 119 120 0
-121 -122 0
-121 -123 0
-122 -123 0
121 122 123 0
-124 -125 0
-124 -126 0
-125 -126 0
124 125 126 0
-127 -128 0
-127 -129 0
-128 -129 0
127 128 129 0
-130 -131 0
-130 -132 0
-131 -132 0
130 131 132 0
-133 -134 0
-133 -135 0
-134 -135 0
133 134 135 0
-136 -137 0
-136 -138 0
-137 -138 0
136 137 138 0
-139 -140 0
-139 -141 0
-140 -141 0
139 140 141 0
-142 -143 0
-142 -144 0
-143 -144 0
142 143 144 0
-145 -146 0
-145 -147 0
-146 -147 0
145 146 147 0
-148 -149 0
-148 -150 0
-149 -150 0
148 149 150 0
-151 -152 0
-151 -153 0
-152 -153 0
151 152 153 0
-154 -155 0
-154 -156 0
-155 -156 0
154 155 156 0
-157 -158 0
-157 -159 0
-158 -159 0
157 158 159 0
-160 -161 0
-160 -162 0
-161 -162 0
160 161 162 0
-163 -164 0
-163 -165 0
-164 -165 0
163 164 165 0
-166 -167 0
-166 -168 0
-167 -168 0
166 167 168 0
-169 -170 0
-169 -171 0
-170 -171 0
169 170 171 0
-172 -173 0
-172 -174 0
-173 -174 0
172 173 174 0
-175 -176 0
-175 -177 0
-176 -177 0
175 176 177 0
-178 -179 0
-178 -180 0
-179 -180 0
178 179 180 0
-181 -182 0
-181 -183 0
-182 -183 0
181 182 183 0
-184 -185 0
-184 -186 0
-185 -186 0
184 185 186 0
-187 -188 0
-187 -189 0
-188 -189 0
187 188 189 0
-190 -191 0
-190 -192 0
-191 -192 0
190 191 192 0
-193 -194 0
-193 -195 0
-194 -195 0
193 194 195 0
-196 -197 0
-196 -198 0
-197 -198 0
196 197 198 0
-199 -200 0
-199 -201 0
-200 -201 0
199 200 201 0
-202 -203 0
-202 -204 0
-203 -204 0
202 203 204 0
-205 -206 0
-205 -207 0
-206 -207 0
205 206 207 0
-208 -209 0
-208 -210 0
-209 -210 0
208 209 210 0
-211 -212 0
-211 -213 0
-212 -213 0
211 212 213 0
-214 -215 0
-214 -216 0
-215 -216 0
214 215 216 0
-217 -218 0
-217 -219 0
-218 -219 0
217 218 219 0
-220 -221 0
-220 -222 0
-221 -222 0
220 221 222 0
-223 -224 0
-223 -225 0
-224 -225 0
223 224 225 0
-226 -227 0
-226 -228 0
-227 -228 0
226 227 228 0
-229 -230 0
-229 -231 0
-230 -231 0
229 230 231 0
-232 -233 0
-232 -234 0
-233 -234 0
232 233 234 0
-235 -236 0
-235 -237 0
-236 -237 0
235 236 237 0
-238 -239 0
-238 -240 0
-239 -240 0
238 239 240 0
-241 -242 0
-241 -243 0
-242 -243 0
241 242 243 0
-244 -245 0
-244 -246 0
-245 -246 0
244 245 246 0
-247 -248 0
-247 -249 0
-248 -249 0
247 248 249 0
-250 -251 0
-250 -252 0
-251 -252 0
250 251 252 0
-253 -254 0
-253 -255 0
-254 -255 0
253 254 255 0
-256 -257 0
-256 -258 0
-257 -258 0
256 257 258 0
-259 -260 0
-259 -261 0
-260 -261 0
259 260 261 0
-262 -263 0
-262 -264 0
-263 -264 0
262 263 264 0
-265 -266 0
-265 -267 0
-266 -267 0
265 266 267 0
-268 -269 0
-268 -270 0
-269 -270 0
268 269 270 0
-271 -272 0
-271 -273 0
-272 -273 0
271 272 273 0
-274 -275 0
-274 -276 0
-275 -276 0
274 275 276 0
-277 -278 0
-277 -279 0
-278 -279 0
277 278 279 0
-280 -281 0
-280 -282 0
-281 -282 0
280 281 282 0
-283 -284 0
-283 -285 0
-284 -285 0
283 284 285 0
-286 -287 0
-286 -288 0
-287 -288 0
286 287 288 0
-289 -290 0
-289 -291 0
-290 -291 0
289 290 291 0
-292 -293 0
-292 -294 0
-293 -294 0
292 293 294 0
-295 -296 0
-295 -297 0
-296 -297 0
295 296 297 0
-298 -299 0
-298 -300 0
-299 -300 0
298 299 300 0
-301 -302 0
-301 -303 0
-302 -303 0
301 302 303 0
-304 -305 0
-304 -306 0
-305 -306 0
304 305 306 0
-307 -308 0
-307 -309 0
-308 -309 0
307 308 309 0
-310 -311 0
-310 -312 0
-311 -312 0
310 311 312 0
-313 -314 0
-313 -315 0
-314 -315 0
313 314 315 0
-316 -317 0
-316 -318 0
-317 -318 0
316 317 318 0
-319 -320 0
-319 -321 0
-320 -321 0
319 320 321 0
-322 -323 0
-322 -324 0
-323 -324 0
322 323 324 0
-325 -326 0
-325 -327 0
-326 -327 0
325 326 327 0
-328 -329 0
-328 -330 0
-329 -330 0
328 329 330 0
-331 -332 0
-331 -333 0
-332 -333 0
331 332 333 0
-334 -335 0
-334 -336 0
-335 -336 0
334 335 336 0
-337 -338 0
-337 -339 0
-338 -339 0
337 338 339 0
-340 -341 0
-340 -342 0
-341 -342 0
340 341 342 0
-343 -344 0
-343 -345 0
-344 -345 0
343 344 345 0
-346 -347 0
-346 -348 0
-347 -348 0
346 347 348 0
-349 -350 0
-349 -351 0
-350 -351 0
349 350 351 0
-352 -353 0
-352 -354 0
-353 -354 0
352 353 354 0
-355 -356 0
-355 -357 0
-356 -357 0
355 356 357 0
-358 -359 0
-358 -360 0
-359 -360 0
358 359 360 0
-361 -362 0
-361 -363 0
-362 -363 0
361 362 363 0
-364 -365 0
-364 -366 0
-365 -366 0
364 365 366 0
-367 -368 0
-367 -369 0
-368 -369 0
367 368 369 0
-370 -371 0
-370 -372 0
-371 -372 0
370 371 372 0
-373 -374 0
-373 -375 0
-374 -375 0
373 374 375 0
-376 -377 0
-376 -378 0
-377 -378 0
376 377 378 0
-379 -380 0
-379 -381 0
-380 -381 0
379 380 381 0
-382 -383 0
-382 -384 0
-383 -384 0
382 383 384 0
-385 -386 0
-385 -387 0
-386 -387 0
385 386 387 0
-388 -389 0
-388 -390 0
-389 -390 0
388 389 390 0
-391 -392 0
-391 -393 0
-392 -393 0
391 392 393 0
-394 -395 0
-394 -396 0
-395 -396 0
394 395 396 0
-397 -398 0
-397 -399 0
-398 -399 0
397 398 399 0
-400 -401 0
-400 -402 0
-401 -402 0
400 401 402 0
-403 -404 0
-403 -405 0
-404 -405 0
403 404 405 0
-406 -407 0
-406 -408 0
-407 -408 0
406 407 408 0
-409 -410 0
-409 -411 0
-410 -411 0
409 410 411 0
-412 -413 0
-412 -414 0
-413 -414 0
412 413 414 0
-415 -416 0
-415 -417 0
-416 -417 0
415 416 417 0
-418 -419 0
-418 -420 0
-419 -420 0
418 419 420 0
-421 -422 0
-421 -423 0
-422 -423 0
421 422 423 0
-424 -425 0
-424 -426 0
-425 -426 0
424 425 426 0
-427 -428 0
-427 -429 0
-428 -429 0
427 428 429 0
-430 -431 0
-430 -432 0
-431 -432 0
430 431 432 0
-433 -434 0
-433 -435 0
-434 -435 0
433 434 435 0
-436 -437 0
-436 -438 0
-437 -438 0
436 437 438 0
-439 -440 0
-439 -441 0
-440 -441 0
439 440 441 0
-442 -443 0
-442 -444 0
-443 -444 0
442 443 444 0
-445 -446 0
-445 -447 0
-446 -447 0
445 446 447 0
-448 -449 0
-448 -450 0
-449 -450 0
448 449 450 0
-451 -452 0
-451 -453 0
-452 -453 0
451 452 453 0
-454 -455 0
-454 -456 0
-455 -456 0
454 455 456 0
-457 -458 0
-457 -459 0
-458 -459 0
457 458 459 0
-460 -461 0
-460 -462 0
-461 -462 0
460 461 462 0
-463 -464 0
-463 -465 0
-464 -465 0
463 464 465 0
-466 -467 0
-466 -468 0
-467 -468 0
466 467 468 0
-469 -470 0
-469 -471 0
-470 -471 0
469 470 471 0
-472 -473 0
-472 -474 0
-473 -474 0
472 473 474 0
-475 -476 0
-475 -477 0
-476 -477 0
475 476 477 0
-478 -479 0
-478 -480 0
-479 -480 0
478 479 480 0
-481 -482 0
-481 -483 0
-482 -483 0
481 482 483 0
-484 -485 0
-484 -486 0
-485 -486 0
484 485 486 0
-487 -488 0
-487 -489 0
-488 -489 0
487 488 489 0
-490 -491 0
-490 -492 0
-491 -492 0
490 491 492 0
-493 -494 0
-493 -495 0
-494 -495 0
493 494 495 0
-496 -497 0
-496 -498 0
-497 -498 0
496 497 498 0
-499 -500 0
-499 -501 0
-500 -501 0
499 500 501 0
-502 -503 0
-502 -504 0
-503 -504 0
502 503 504 0
-505 -506 0
-505 -507 0
-506 -507 0
505 506 507 0
-508 -509 0
-508 -510 0
-509 -510 0
508 509 510 0
-511 -512 0
-511 -513 0
-512 -513 0
511 512 513 0
-514 -515 0
-514 -516 0
-515 -516 0
514 515 516 0
-517 -518 0
-517 -519 0
-518 -519 0
517 518 519 0
-520 -521 0
-520 -522 0
-521 -522 0
520 521 522 0
-523 -524 0
-523 -525 0
-524 -525 0
523 524 525 0
-526 -527 0
-526 -528 0
-527 -528 0
526 527 528 0
-529 -530 0
-529 -531 0
-530 -531 0
529 530 531 0
-532 -533 0
-532 -534 0
-533 -534 0
532 533 534 0
-535 -536 0
-535 -537 0
-536 -537 0
535 536 537 0
-538 -539 0
-538 -540 0
-539 -540 0
538 539 540 0
-541 -542 0
-541 -543 0
-542 -543 0
541 542 543 0
-544 -545 0
-544 -546 0
-545 -546 0
544 545 546 0
-547 -548 0
-547 -549 0
-548 -549 0
547 548 549 0
-550 -551 0
-550 -552 0
-551 -552 0
550 551 552 0
-553 -554 0
-553 -555 0
-554 -555 0
553 554 555 0
-556 -557 0
-556 -558 0
-557 -558 0
556 557 558 0
-559 -560 0
-559 -561 0
-560 -561 0
559 560 561 0
-562 -563 0
-562 -564 0
-563 -564 0
562 563 564 0
-565 -566 0
-565 -567 0
-566 -567 0
565 566 567 0
-568 -569 0
-568 -570 0
-569 -570 0
568 569 570 0
-571 -572 0
-571 -573 0
-572 -573 0
571 572 573 0
-574 -575 0
-574 -576 0
-575 -576 0
574 575 576 0
-577 -578 0
-577 -579 0
-578 -579 0
577 578 579 0
-580 -581 0
-580 -582 0
-581 -582 0
580 581 582 0
-583 -584 0
-583 -585 0
-584 -585 0
583 584 585 0
-586 -587 0
-586 -588 0
-587 -588 0
586 587 588 0
-589 -590 0
-589 -591 0
-590 -591 0
589 590 591 0
-592 -593 0
-592 -594 0
-593 -594 0
592 593 594 0
-595 -596 0
-595 -597 0
-596 -597 0
595 596 597 0
-598 -599 0
-598 -600 0
-599 -600 0
598 599 600 0
-166 -1 0
-167 -2 0
-168 -3 0
-211 -1 0
-212 -2 0
-213 -3 0
-253 -1 0
-254 -2 0
-255 -3 0
-556 -1 0
-557 -2 0
-558 -3 0
-562 -1 0
-563 -2 0
-564 -3 0
-133 -4 0
-134 -5 0
-135 -6 0
-331 -4 0
-332 -5 0
-333 -6 0
-457 -4 0
-458 -5 0
-459 -6 0
-73 -7 0
-74 -8 0
-75 -9 0
-217 -7 0
-218 -8 0
-219 -9 0
-367 -7 0
-368 -8 0
-369 -9 0
-412 -7 0
-413 -8 0
-414 -9 0
-442 -7 0
-443 -8 0
-444 -9 0
-25 -10 0
-26 -11 0
-27 -12 0
-304 -10 0
-305 -11 0
-306 -12 0
-340 -10 0
-341 -11 0
-342 -12 0
-355 -10 0
-356 -11 0
-357 -12 0
-514 -10 0
-515 -11 0
-516 -12 0
-586 -10 0
-587 -11 0
-588 -12 0
-43 -13 0
-44 -14 0
-45 -15 0
-334 -13 0
-335 -14 0
-336 -15 0
-376 -13 0
-377 -14 0
-378 -15 0
-448 -13 0
-449 -14 0
-450 -15 0
-58 -16 0
-59 -17 0
-60 -18 0
-280 -16 0
-281 -17 0
-282 -18 0
-301 -16 0
-302 -17 0
-303 -18 0
-370 -16 0
-371 -17 0
-372 -18 0
-430 -16 0
-431 -17 0
-432 -18 0
-529 -16 0
-530 -17 0
-531 -18 0
-580 -16 0
-581 -17 0
-582 -18 0
-67 -19 0
-68 -20 0
-69 -21 0
-418 -19 0
-419 -20 0
-420 -21 0
-88 -22 0
-89 -23 0
-90 -24 0
-514 -22 0
-515 -23 0
-516 -24 0
-139 -25 0
-140 -26 0
-141 -27 0
-169 -25 0
-170 -26 0
-171 -27 0
-541 -25 0
-542 -26 0
-543 -27 0
-556 -25 0
-557 -26 0
-558 -27 0
-79 -28 0
-80 -29 0
-81 -30 0
-106 -28 0
-107 -29 0
-108 -30 0
-109 -28 0
-110 -29 0
-111 -30 0
-157 -28 0
-158 -29 0
-159 -30 0
-439 -28 0
-440 -29 0
-441 -30 0
-448 -28 0
-449 -29 0
-450 -30 0
-472 -28 0
-473 -29 0
-474 -30 0
-268 -31 0
-269 -32 0
-270 -33 0
-295 -31 0
-296 -32 0
-297 -33 0
-325 -31 0
-326 -32 0
-327 -33 0
-361 -31 0
-362 -32 0
-363 -33 0
-391 -31 0
-392 -32 0
-393 -33 0
-595 -31 0
-596 -32 0
-597 -33 0
-208 -34 0
-209 -35 0
-210 -36 0
-289 -34 0
-290 -35 0
-291 -36 0
-331 -34 0
-332 -35 0
-333 -36 0
-439 -34 0
-440 -35 0
-441 -36 0
-493 -34 0
-494 -35 0
-495 -36 0
-595 -34 0
-596 -35 0
-597 -36 0
-151 -37 0
-152 -38 0
-153 -39 0
-217 -37 0
-218 -38 0
-219 -39 0
-292 -37 0
-293 -38 0
-294 -39 0
-394 -37 0
-395 -38 0
-396 -39 0
-442 -37 0
-443 -38 0
-444 -39 0
-487 -37 0
-488 -38 0
-489 -39 0
-229 -40 0
-230 -41 0
-231 -42 0
-568 -40 0
-569 -41 0
-570 -42 0
-64 -43 0
-65 -44 0
-66 -45 0
-184 -43 0
-185 -44 0
-186 -45 0
-118 -46 0
-119 -47 0
-120 -48 0
-151 -46 0
-152 -47 0
-153 -48 0
-157 -46 0
-158 -47 0
-159 -48 0
-211 -46 0
-212 -47 0
-213 -48 0
-271 -46 0
-272 -47 0
-273 -48 0
-451 -46 0
-452 -47 0
-453 -48 0
-157 -49 0
-158 -50 0
-159 -51 0
-301 -49 0
-302 -50 0
-303 -51 0
-343 -49 0
-344 -50 0
-345 -51 0
-565 -49 0
-566 -50 0
-567 -51 0
-64 -52 0
-65 -53 0
-66 -54 0
-121 -52 0
-122 -53 0
-123 -54 0
-283 -52 0
-284 -53 0
-285 -54 0
-301 -52 0
-302 -53 0
-303 -54 0
-133 -55 0
-134 -56 0
-135 -57 0
-283 -55 0
-284 -56 0
-285 -57 0
-376 -55 0
-377 -56 0
-378 -57 0
-451 -55 0
-452 -56 0
-453 -57 0
-556 -55 0
-557 -56 0
-558 -57 0
-592 -55 0
-593 -56 0
-594 -57 0
-271 -58 0
-272 -59 0
-273 -60 0
-322 -58 0
-323 -59 0
-324 -60 0
-403 -58 0
-404 -59 0
-405 -60 0
-454 -58 0
-455 -59 0
-456 -60 0
-70 -61 0
-71 -62 0
-72 -63 0
-151 -61 0
-152 -62 0
-153 -63 0
-232 -61 0
-233 -62 0
-234 -63 0
-289 -61 0
-290 -62 0
-291 -63 0
-367 -61 0
-368 -62 0
-369 -63 0
-481 -61 0
-482 -62 0
-483 -63 0
-538 -61 0
-539 -62 0
-540 -63 0
-67 -64 0
-68 -65 0
-69 -66 0
-76 -64 0
-77 -65 0
-78 -66 0
-472 -64 0
-473 -65 0
-474 -66 0
-478 -64 0
-479 -65 0
-480 -66 0
-121 -67 0
-122 -68 0
-123 -69 0
-127 -67 0
-128 -68 0
-129 -69 0
-142 -67 0
-143 -68 0
-144 -69 0
-346 -67 0
-347 -68 0
-348 -69 0
-223 -70 0
-224 -71 0
-225 -72 0
-241 -70 0
-242 -71 0
-243 -72 0
-331 -70 0
-332 -71 0
-333 -72 0
-403 -70 0
-404 -71 0
-405 -72 0
-541 -70 0
-542 -71 0
-543 -72 0
-304 -73 0
-305 -74 0
-306 -75 0
-406 -73 0
-407 -74 0
-408 -75 0
-532 -73 0
-533 -74 0
-534 -75 0
-85 -76 0
-86 -77 0
-87 -78 0
-142 -76 0
-143 -77 0
-144 -78 0
-376 -76 0
-377 -77 0
-378 -78 0
-574 -76 0
-575 -77 0
-576 -78 0
-178 -79 0
-179 -80 0
-180 -81 0
-268 -79 0
-269 -80 0
-270 -81 0
-286 -79 0
-287 -80 0
-288 -81 0
-406 -79 0
-407 -80 0
-408 -81 0
-484 -79 0
-485 -80 0
-486 -81 0
-208 -82 0
-209 -83 0
-210 -84 0
-226 -82 0
-227 -83 0
-228 -84 0
-457 -82 0
-458 -83 0
-459 -84 0
-517 -82 0
-518 -83 0
-519 -84 0
-130 -85 0
-131 -86 0
-132 -87 0
-355 -85 0
-356 -86 0
-357 -87 0
-460 -85 0
-461 -86 0
-462 -87 0
-550 -85 0
-551 -86 0
-552 -87 0
-109 -88 0
-110 -89 0
-111 -90 0
-370 -88 0
-371 -89 0
-372 -90 0
-427 -88 0
-428 -89 0
-429 -90 0
-460 -88 0
-461 -89 0
-462 -90 0
-589 -88 0
-590 -89 0
-591 -90 0
-595 -88 0
-596 -89 0
-597 -90 0
-178 -91 0
-179 -92 0
-180 -93 0
-382 -91 0
-383 -92 0
-384 -93 0
-415 -91 0
-416 -92 0
-417 -93 0
-229 -94 0
-230 -95 0
-231 -96 0
-586 -94 0
-587 -95 0
-588 -96 0
-379 -97 0
-380 -98 0
-381 -99 0
-529 -97 0
-530 -98 0
-531 -99 0
-589 -97 0
-590 -98 0
-591 -99 0
-115 -100 0
-116 -101 0
-117 -102 0
-472 -100 0
-473 -101 0
-474 -102 0
-541 -100 0
-542 -101 0
-543 -102 0
-469 -103 0
-470 -104 0
-471 -105 0
-499 -103 0
-500 -104 0
-501 -105 0
-529 -103 0
-530 -104 0
-531 -105 0
-556 -103 0
-557 -104 0
-558 -105 0
-142 -106 0
-143 -107 0
-144 -108 0
-169 -106 0
-170 -107 0
-171 -108 0
-172 -106 0
-173 -107 0
-174 -108 0
-202 -106 0
-203 -107 0
-204 -108 0
-553 -106 0
-554 -107 0
-555 -108 0
-187 -109 0
-188 -110 0
-189 -111 0
-322 -109 0
-323 -110 0
-324 -111 0
-409 -109 0
-410 -110 0
-411 -111 0
-427 -109 0
-428 -110 0
-429 -111 0
-535 -109 0
-536 -110 0
-537 -111 0
-346 -112 0
-347 -113 0
-348 -114 0
-460 -112 0
-461 -113 0
-462 -114 0
-475 -112 0
-476 -113 0
-477 -114 0
-562 -112 0
-563 -113 0
-564 -114 0
-583 -112 0
-584 -113 0
-585 -114 0
-154 -115 0
-155 -116 0
-156 -117 0
-397 -115 0
-398 -116 0
-399 -117 0
-241 -118 0
-242 -119 0
-243 -120 0
-307 -118 0
-308 -119 0
-309 -120 0
-484 -118 0
-485 -119 0
-486 -120 0
-400 -121 0
-401 -122 0
-402 -123 0
-475 -121 0
-476 -122 0
-477 -123 0
-496 -121 0
-497 -122 0
-498 -123 0
-145 -124 0
-146 -125 0
-147 -126 0
-157 -124 0
-158 -125 0
-159 -126 0
-196 -124 0
-197 -125 0
-198 -126 0
-283 -124 0
-284 -125 0
-285 -126 0
-361 -124 0
-362 -125 0
-363 -126 0
-544 -124 0
-545 -125 0
-546 -126 0
-310 -127 0
-311 -128 0
-312 -129 0
-355 -127 0
-356 -128 0
-357 -129 0
-442 -127 0
-443 -128 0
-444 -129 0
-274 -130 0
-275 -131 0
-276 -132 0
-343 -130 0
-344 -131 0
-345 -132 0
-376 -130 0
-377 -131 0
-378 -132 0
-397 -130 0
-398 -131 0
-399 -132 0
-502 -130 0
-503 -131 0
-504 -132 0
-325 -133 0
-326 -134 0
-327 -135 0
-427 -133 0
-428 -134 0
-429 -135 0
-262 -136 0
-263 -137 0
-264 -138 0
-277 -136 0
-278 -137 0
-279 -138 0
-478 -136 0
-479 -137 0
-480 -138 0
-358 -139 0
-359 -140 0
-360 -141 0
-193 -142 0
-194 -143 0
-195 -144 0
-265 -142 0
-266 -143 0
-267 -144 0
-520 -142 0
-521 -143 0
-522 -144 0
-577 -142 0
-578 -143 0
-579 -144 0
-160 -145 0
-161 -146 0
-162 -147 0
-244 -145 0
-245 -146 0
-246 -147 0
-451 -145 0
-452 -146 0
-453 -147 0
-229 -148 0
-230 -149 0
-231 -150 0
-355 -148 0
-356 -149 0
-357 -150 0
-394 -148 0
-395 -149 0
-396 -150 0
-442 -148 0
-443 -149 0
-444 -150 0
-445 -148 0
-446 -149 0
-447 -150 0
-532 -148 0
-533 -149 0
-534 -150 0
-562 -148 0
-563 -149 0
-564 -150 0
-568 -148 0
-569 -149 0
-570 -150 0
-154 -151 0
-155 -152 0
-156 -153 0
-325 -154 0
-326 -155 0
-327 -156 0
-352 -154 0
-353 -155 0
-354 -156 0
-355 -154 0
-356 -155 0
-357 -156 0
-361 -154 0
-362 -155 0
-363 -156 0
-391 -154 0
-392 -155 0
-393 -156 0
-460 -157 0
-461 -158 0
-462 -159 0
-262 -160 0
-263 -161 0
-264 -162 0
-364 -160 0
-365 -161 0
-366 -162 0
-469 -160 0
-470 -161 0
-471 -162 0
-493 -160 0
-494 -161 0
-495 -162 0
-256 -163 0
-257 -164 0
-258 -165 0
-592 -163 0
-593 -164 0
-594 -165 0
-307 -166 0
-308 -167 0
-309 -168 0
-409 -166 0
-410 -167 0
-411 -168 0
-508 -166 0
-509 -167 0
-510 -168 0
-535 -166 0
-536 -167 0
-537 -168 0
-547 -166 0
-548 -167 0
-549 -168 0
-298 -169 0
-299 -170 0
-300 -171 0
-358 -169 0
-359 -170 0
-360 -171 0
-424 -169 0
-425 -170 0
-426 -171 0
-445 -169 0
-446 -170 0
-447 -171 0
-397 -172 0
-398 -173 0
-399 -174 0
-448 -172 0
-449 -173 0
-450 -174 0
-553 -172 0
-554 -173 0
-555 -174 0
-565 -172 0
-566 -173 0
-567 -174 0
-190 -175 0
-191 -176 0
-192 -177 0
-184 -178 0
-185 -179 0
-186 -180 0
-382 -178 0
-383 -179 0
-384 -180 0
-481 -178 0
-482 -179 0
-483 -180 0
-523 -178 0
-524 -179 0
-525 -180 0
-187 -181 0
-188 -182 0
-189 -183 0
-196 -181 0
-197 -182 0
-198 -183 0
-544 -181 0
-545 -182 0
-546 -183 0
-586 -181 0
-587 -182 0
-588 -183 0
-310 -184 0
-311 -185 0
-312 -186 0
-313 -184 0
-314 -185 0
-315 -186 0
-352 -184 0
-353 -185 0
-354 -186 0
-586 -184 0
-587 -185 0
-588 -186 0
-202 -187 0
-203 -188 0
-204 -189 0
-220 -187 0
-221 -188 0
-222 -189 0
-289 -187 0
-290 -188 0
-291 -189 0
-340 -187 0
-341 -188 0
-342 -189 0
-523 -187 0
-524 -188 0
-525 -189 0
-544 -187 0
-545 -188 0
-546 -189 0
-361 -190 0
-362 -191 0
-363 -192 0
-364 -190 0
-365 -191 0
-366 -192 0
-472 -190 0
-473 -191 0
-474 -192 0
-535 -190 0
-536 -191 0
-537 -192 0
-577 -190 0
-578 -191 0
-579 -192 0
-226 -193 0
-227 -194 0
-228 -195 0
-277 -193 0
-278 -194 0
-279 -195 0
-538 -193 0
-539 -194 0
-540 -195 0
-337 -196 0
-338 -197 0
-339 -198 0
-451 -196 0
-452 -197 0
-453 -198 0
-271 -199 0
-272 -200 0
-273 -201 0
-355 -199 0
-356 -200 0
-357 -201 0
-409 -199 0
-410 -200 0
-411 -201 0
-418 -199 0
-419 -200 0
-420 -201 0
-460 -199 0
-461 -200 0
-462 -201 0
-541 -199 0
-542 -200 0
-543 -201 0
-268 -202 0
-269 -203 0
-270 -204 0
-373 -202 0
-374 -203 0
-375 -204 0
-574 -202 0
-575 -203 0
-576 -204 0
-229 -205 0
-230 -206 0
-231 -207 0
-406 -205 0
-407 -206 0
-408 -207 0
-316 -208 0
-317 -209 0
-318 -210 0
-370 -208 0
-371 -209 0
-372 -210 0
-592 -211 0
-593 -212 0
-594 -213 0
-226 -214 0
-227 -215 0
-228 -216 0
-229 -214 0
-230 -215 0
-231 -216 0
-331 -214 0
-332 -215 0
-333 -216 0
-418 -214 0
-419 -215 0
-420 -216 0
-511 -214 0
-512 -215 0
-513 -216 0
-253 -217 0
-254 -218 0
-255 -219 0
-283 -217 0
-284 -218 0
-285 -219 0
-421 -217 0
-422 -218 0
-423 -219 0
-598 -217 0
-599 -218 0
-600 -219 0
-259 -220 0
-260 -221 0
-261 -222 0
-280 -220 0
-281 -221 0
-282 -222 0
-454 -223 0
-455 -224 0
-456 -225 0
-559 -223 0
-560 -224 0
-561 -225 0
-565 -223 0
-566 -224 0
-567 -225 0
-382 -226 0
-383 -227 0
-384 -228 0
-307 -229 0
-308 -230 0
-309 -231 0
-331 -229 0
-332 -230 0
-333 -231 0
-397 -229 0
-398 -230 0
-399 -231 0
-478 -232 0
-479 -233 0
-480 -234 0
-514 -232 0
-515 -233 0
-516 -234 0
-388 -235 0
-389 -236 0
-390 -237 0
-487 -235 0
-488 -236 0
-489 -237 0
-505 -235 0
-506 -236 0
-507 -237 0
-592 -235 0
-593 -236 0
-594 -237 0
-373 -241 0
-374 -242 0
-375 -243 0
-388 -241 0
-389 -242 0
-390 -243 0
-517 -241 0
-518 -242 0
-519 -243 0
-595 -241 0
-596 -242 0
-597 -243 0
-295 -244 0
-296 -245 0
-297 -246 0
-400 -244 0
-401 -245 0
-402 -246 0
-451 -244 0
-452 -245 0
-453 -246 0
-334 -247 0
-335 -248 0
-336 -249 0
-463 -247 0
-464 -248 0
-465 -249 0
-541 -247 0
-542 -248 0
-543 -249 0
-553 -247 0
-554 -248 0
-555 -249 0
-277 -253 0
-278 -254 0
-279 -255 0
-490 -253 0
-491 -254 0
-492 -255 0
-496 -253 0
-497 -254 0
-498 -255 0
-520 -253 0
-521 -254 0
-522 -255 0
-268 -256 0
-269 -257 0
-270 -258 0
-274 -256 0
-275 -257 0
-276 -258 0
-301 -256 0
-302 -257 0
-303 -258 0
-334 -256 0
-335 -257 0
-336 -258 0
-469 -256 0
-470 -257 0
-471 -258 0
-499 -256 0
-500 -257 0
-501 -258 0
-532 -256 0
-533 -257 0
-534 -258 0
-493 -259 0
-494 -260 0
-495 -261 0
-325 -262 0
-326 -263 0
-327 -264 0
-358 -262 0
-359 -263 0
-360 -264 0
-529 -262 0
-530 -263 0
-531 -264 0
-355 -265 0
-356 -266 0
-357 -267 0
-490 -265 0
-491 -266 0
-492 -267 0
-547 -265 0
-548 -266 0
-549 -267 0
-559 -265 0
-560 -266 0
-561 -267 0
-343 -268 0
-344 -269 0
-345 -270 0
-454 -268 0
-455 -269 0
-456 -270 0
-484 -268 0
-485 -269 0
-486 -270 0
-505 -271 0
-506 -272 0
-507 -273 0
-511 -271 0
-512 -272 0
-513 -273 0
-541 -271 0
-542 -272 0
-543 -273 0
-577 -271 0
-578 -272 0
-579 -273 0
-418 -274 0
-419 -275 0
-420 -276 0
-469 -274 0
-470 -275 0
-471 -276 0
-316 -277 0
-317 -278 0
-318 -279 0
-319 -277 0
-320 -278 0
-321 -279 0
-415 -277 0
-416 -278 0
-417 -279 0
-490 -277 0
-491 -278 0
-492 -279 0
-547 -280 0
-548 -281 0
-549 -282 0
-595 -280 0
-596 -281 0
-597 -282 0
-436 -283 0
-437 -284 0
-438 -285 0
-472 -283 0
-473 -284 0
-474 -285 0
-490 -283 0
-491 -284 0
-492 -285 0
-376 -286 0
-377 -287 0
-378 -288 0
-469 -286 0
-470 -287 0
-471 -288 0
-511 -286 0
-512 -287 0
-513 -288 0
-367 -289 0
-368 -290 0
-369 -291 0
-526 -289 0
-527 -290 0
-528 -291 0
-493 -292 0
-494 -293 0
-495 -294 0
-499 -292 0
-500 -293 0
-501 -294 0
-517 -292 0
-518 -293 0
-519 -294 0
-418 -295 0
-419 -296 0
-420 -297 0
-454 -295 0
-455 -296 0
-456 -297 0
-376 -298 0
-377 -299 0
-378 -300 0
-466 -298 0
-467 -299 0
-468 -300 0
-511 -298 0
-512 -299 0
-513 -300 0
-595 -298 0
-596 -299 0
-597 -300 0
-367 -304 0
-368 -305 0
-369 -306 0
-412 -304 0
-413 -305 0
-414 -306 0
-454 -304 0
-455 -305 0
-456 -306 0
-547 -304 0
-548 -305 0
-549 -306 0
-532 -310 0
-533 -311 0
-534 -312 0
-544 -310 0
-545 -311 0
-546 -312 0
-346 -313 0
-347 -314 0
-348 -315 0
-379 -313 0
-380 -314 0
-381 -315 0
-400 -313 0
-401 -314 0
-402 -315 0
-523 -313 0
-524 -314 0
-525 -315 0
-571 -313 0
-572 -314 0
-573 -315 0
-382 -316 0
-383 -317 0
-384 -318 0
-574 -316 0
-575 -317 0
-576 -318 0
-370 -319 0
-371 -320 0
-372 -321 0
-445 -319 0
-446 -320 0
-447 -321 0
-532 -322 0
-533 -323 0
-534 -324 0
-529 -325 0
-530 -326 0
-531 -327 0
-406 -328 0
-407 -329 0
-408 -330 0
-385 -331 0
-386 -332 0
-387 -333 0
-406 -331 0
-407 -332 0
-408 -333 0
-424 -331 0
-425 -332 0
-426 -333 0
-415 -334 0
-416 -335 0
-417 -336 0
-451 -334 0
-452 -335 0
-453 -336 0
-385 -337 0
-386 -338 0
-387 -339 0
-541 -337 0
-542 -338 0
-543 -339 0
-577 -337 0
-578 -338 0
-579 -339 0
-382 -343 0
-383 -344 0
-384 -345 0
-487 -343 0
-488 -344 0
-489 -345 0
-565 -343 0
-566 -344 0
-567 -345 0
-589 -343 0
-590 -344 0
-591 -345 0
-370 -346 0
-371 -347 0
-372 -348 0
-409 -346 0
-410 -347 0
-411 -348 0
-490 -349 0
-491 -350 0
-492 -351 0
-478 -358 0
-479 -359 0
-480 -360 0
-508 -358 0
-509 -359 0
-510 -360 0
-550 -358 0
-551 -359 0
-552 -360 0
-424 -361 0
-425 -362 0
-426 -363 0
-559 -361 0
-560 -362 0
-561 -363 0
-439 -364 0
-440 -365 0
-441 -366 0
-442 -364 0
-443 -365 0
-444 -366 0
-589 -364 0
-590 -365 0
-591 -366 0
-478 -367 0
-479 -368 0
-480 -369 0
-526 -370 0
-527 -371 0
-528 -372 0
-538 -370 0
-539 -371 0
-540 -372 0
-490 -376 0
-491 -377 0
-492 -378 0
-580 -376 0
-581 -377 0
-582 -378 0
-418 -379 0
-419 -380 0
-420 -381 0
-478 -379 0
-479 -380 0
-480 -381 0
-595 -379 0
-596 -380 0
-597 -381 0
-430 -385 0
-431 -386 0
-432 -387 0
-481 -385 0
-482 -386 0
-483 -387 0
-490 -385 0
-491 -386 0
-492 -387 0
-511 -385 0
-512 -386 0
-513 -387 0
-424 -388 0
-425 -389 0
-426 -390 0
-577 -388 0
-578 -389 0
-579 -390 0
-418 -391 0
-419 -392 0
-420 -393 0
-523 -391 0
-524 -392 0
-525 -393 0
-562 -391 0
-563 -392 0
-564 -393 0
-478 -394 0
-479 -395 0
-480 -396 0
-514 -394 0
-515 -395 0
-516 -396 0
-529 -394 0
-530 -395 0
-531 -396 0
-559 -394 0
-560 -395 0
-561 -396 0
-577 -397 0
-578 -398 0
-579 -399 0
-598 -397 0
-599 -398 0
-600 -399 0
-505 -400 0
-506 -401 0
-507 -402 0
-412 -403 0
-413 -404 0
-414 -405 0
-547 -403 0
-548 -404 0
-549 -405 0
-454 -409 0
-455 -410 0
-456 -411 0
-466 -409 0
-467 -410 0
-468 -411 0
-487 -409 0
-488 -410 0
-489 -411 0
-415 -412 0
-416 -413 0
-417 -414 0
-580 -412 0
-581 -413 0
-582 -414 0
-442 -415 0
-443 -416 0
-444 -417 0
-562 -415 0
-563 -416 0
-564 -417 0
-589 -415 0
-590 -416 0
-591 -417 0
-511 -424 0
-512 -425 0
-513 -426 0
-466 -427 0
-467 -428 0
-468 -429 0
-487 -427 0
-488 -428 0
-489 -429 0
-442 -430 0
-443 -431 0
-444 -432 0
-448 -433 0
-449 -434 0
-450 -435 0
-499 -433 0
-500 -434 0
-501 -435 0
-550 -433 0
-551 -434 0
-552 -435 0
-586 -439 0
-587 -440 0
-588 -441 0
-559 -445 0
-560 -446 0
-561 -447 0
-547 -448 0
-548 -449 0
-549 -450 0
-568 -448 0
-569 -449 0
-570 -450 0
-529 -451 0
-530 -452 0
-531 -453 0
-580 -454 0
-581 -455 0
-582 -456 0
-583 -454 0
-584 -455 0
-585 -456 0
-499 -457 0
-500 -458 0
-501 -459 0
-511 -457 0
-512 -458 0
-513 -459 0
-550 -460 0
-551 -461 0
-552 -462 0
-505 -469 0
-506 -470 0
-507 -471 0
-583 -472 0
-584 -473 0
-585 -474 0
-502 -475 0
-503 -476 0
-504 -477 0
-538 -475 0
-539 -476 0
-540 -477 0
-589 -481 0
-590 -482 0
-591 -483 0
-586 -484 0
-587 -485 0
-588 -486 0
-520 -487 0
-521 -488 0
-522 -489 0
-535 -487 0
-536 -488 0
-537 -489 0
-523 -493 0
-524 -494 0
-525 -495 0
-580 -493 0
-581 -494 0
-582 -495 0
-514 -496 0
-515 -497 0
-516 -498 0
-526 -502 0
-527 -503 0
-528 -504 0
-547 -502 0
-548 -503 0
-549 -504 0
-532 -526 0
-533 -527 0
-534 -528 0
-595 -538 0
-596 -539 0
-597 -540 0
-598 -541 0
-599 -542 0
-600 -543 0
-565 -547 0
-566 -548 0
-567 -549 0
-592 -556 0
-593 -557 0
-594 -558 0
-580 -562 0
-581 -563 0
-582 -564 0
-574 -568 0
-575 -569 0
-576 -570 0
-583 -577 0
-584 -578 0
-585 -579 0
-592 -580 0
-593 -581 0
-594 -582 0
